results/x-long/X-n106-k14.vrp_seed-44.out
26362	1060
