results/x-long/X-n106-k14.vrp_seed-44.vrp.sol
Route #1: 96 45 100 51 76 15 44 5
Route #2: 22 33
Route #3: 60 87 43 97 93 101 103 53
Route #4: 67 48 8 36 91 88 58 14
Route #5: 1 104 12 9 84 75 7
Route #6: 29 72 34 11 99 49 71
Route #7: 78 19 27 37 79 46 66 28
Route #8: 62 26 90 24 102 92 52
Route #9: 86 18 41 10 16 20 56
Route #10: 68 95 38 65 80 61 47 25
Route #11: 57 63 31 40 13 85 21 74
Route #12: 54 77 83 2 17 69 105 64 94 82
Route #13: 59 89 30 42 23 3 32 73 35
Route #14: 55 98 4 70 6 81 50 39
Cost 26362.000000